Normalized Data/p04_1090_tsplib0_normalized_split0.vrp
NAME:p04_1090_tsplib0_NORMALIZED_split
BEST_KNOWN: 0
COMMENT: 0
DIMENSION: 834
CAPACITY: 100
EDGE_WEIGHT_FORMAT: FUNCTION
EDGE_WEIGHT_TYPE: EXACT_2D
NODE_COORD_SECTION
1 0.00000 0.00000
2 2 17
3 2 17
4 2 17
5 2 17
6 2 17
7 2 17
8 2 17
9 2 17
10 14 14
11 14 14
12 14 14
13 17 29
14 17 29
15 17 29
16 17 29
17 17 29
18 -15 -9
19 -15 -9
20 -15 -9
21 -15 -9
22 -15 -9
23 -15 -9
24 -15 -9
25 5 -5
26 5 -5
27 5 -5
28 5 -5
29 5 -5
30 5 -5
31 -14 12
32 -14 12
33 -14 12
34 -14 12
35 -14 12
36 -14 12
37 -14 12
38 -14 12
39 -18 28
40 -18 28
41 -18 28
42 -18 28
43 -18 28
44 -18 28
45 -18 28
46 -4 27
47 -4 27
48 -4 27
49 -4 27
50 -4 27
51 17 -2
52 17 -2
53 17 -2
54 16 -14
55 16 -14
56 16 -14
57 7 6
58 7 6
59 7 6
60 7 6
61 7 6
62 7 6
63 7 6
64 7 6
65 -4 -3
66 -4 -3
67 -4 -3
68 -30 -10
69 -30 -10
70 -30 -10
71 -30 -10
72 -30 -10
73 -23 7
74 -23 7
75 -23 7
76 -23 7
77 1 -19
78 1 -19
79 1 -19
80 1 -19
81 1 -19
82 17 6
83 17 6
84 17 6
85 17 6
86 17 6
87 -8 -12
88 -8 -12
89 -8 -12
90 -18 -2
91 -18 -2
92 -18 -2
93 -22 -22
94 -22 -22
95 -22 -22
96 -22 -22
97 -22 -22
98 -22 -22
99 -22 -22
100 -22 -22
101 22 23
102 22 23
103 22 23
104 22 23
105 22 23
106 22 23
107 27 7
108 27 7
109 27 7
110 27 7
111 27 7
112 7 22
113 7 22
114 7 22
115 -19 22
116 -19 22
117 -19 22
118 -19 22
119 -19 22
120 -27 17
121 -27 17
122 -27 17
123 -27 17
124 -27 17
125 -28 3
126 -28 3
127 -28 3
128 -28 3
129 -28 3
130 -28 3
131 -28 3
132 -8 33
133 -8 33
134 -8 33
135 -8 33
136 -8 33
137 -8 33
138 -8 33
139 -5 13
140 -5 13
141 -5 13
142 8 32
143 8 32
144 8 32
145 8 32
146 8 32
147 8 32
148 23 13
149 23 13
150 23 13
151 23 -8
152 23 -8
153 23 -8
154 23 -8
155 23 -8
156 2 34
157 2 34
158 2 34
159 2 34
160 2 34
161 2 34
162 2 34
163 2 34
164 3 11
165 3 11
166 3 11
167 3 11
168 3 11
169 3 11
170 3 11
171 3 11
172 11 -25
173 11 -25
174 11 -25
175 11 -25
176 11 -25
177 11 -25
178 26 -2
179 26 -2
180 26 -2
181 26 -2
182 27 28
183 27 28
184 27 28
185 27 28
186 27 28
187 27 28
188 27 28
189 28 34
190 28 34
191 28 34
192 28 34
193 28 34
194 28 34
195 -3 -13
196 -3 -13
197 -3 -13
198 -3 -13
199 -3 -13
200 -3 -13
201 10 0
202 10 0
203 10 0
204 10 0
205 10 0
206 10 0
207 24 -20
208 24 -20
209 24 -20
210 24 -20
211 24 -20
212 24 -20
213 -30 -29
214 -30 -29
215 -30 -29
216 -30 -29
217 -30 -29
218 -30 -29
219 -25 -18
220 -25 -18
221 -14 -25
222 -14 -25
223 -30 29
224 -30 29
225 -30 29
226 -5 -20
227 -5 -20
228 -5 -20
229 -5 -20
230 -5 -20
231 -5 -20
232 4 -25
233 4 -25
234 4 -25
235 4 -25
236 -3 4
237 -3 4
238 -3 4
239 -3 4
240 -10 -3
241 -10 -3
242 -10 -3
243 -10 -3
244 -10 -3
245 -10 -3
246 -10 -3
247 -10 20
248 -10 20
249 -10 20
250 -10 20
251 -10 20
252 -10 20
253 13 -7
254 13 -7
255 13 -7
256 13 -7
257 13 -7
258 13 -7
259 13 -7
260 21 2
261 21 2
262 21 2
263 21 2
264 21 2
265 21 2
266 21 2
267 21 2
268 6 14
269 6 14
270 6 14
271 6 14
272 6 14
273 6 14
274 0 -18
275 0 -18
276 0 -18
277 0 -18
278 0 -18
279 20 10
280 20 10
281 20 10
282 20 -15
283 20 -15
284 20 -15
285 20 -15
286 20 -15
287 20 -15
288 20 -15
289 -20 -5
290 -20 -5
291 -20 -5
292 -20 -5
293 -20 -5
294 -20 -5
295 -20 -5
296 -20 -5
297 -10 -5
298 -10 -5
299 -10 -5
300 -10 -5
301 -10 -5
302 -10 -5
303 -10 -5
304 -15 15
305 -15 15
306 -15 15
307 -15 15
308 -15 15
309 -15 15
310 -25 8
311 -25 8
312 -25 8
313 -25 8
314 -25 8
315 20 25
316 20 25
317 20 25
318 20 25
319 -5 25
320 -5 25
321 -5 25
322 -5 25
323 -5 25
324 -15 30
325 -15 30
326 -15 30
327 -15 30
328 15 0
329 15 0
330 15 0
331 -5 -10
332 -5 -10
333 -5 -10
334 -20 -25
335 -20 -25
336 -20 -25
337 -20 -25
338 -20 -25
339 -5 -30
340 -5 -30
341 -5 -30
342 -5 -30
343 -5 -30
344 -5 -30
345 -25 -15
346 -25 -15
347 -25 -15
348 -25 -15
349 -25 -15
350 -25 -15
351 -30 -5
352 -30 -5
353 -30 -5
354 -30 -5
355 -30 -5
356 -30 -5
357 -30 -5
358 -30 -5
359 -15 5
360 -15 5
361 -15 5
362 -15 5
363 -20 25
364 -20 25
365 -20 25
366 -20 25
367 -20 25
368 -20 25
369 -20 25
370 -20 25
371 10 30
372 10 30
373 10 30
374 10 30
375 10 30
376 10 30
377 10 30
378 10 30
379 10 30
380 10 -15
381 10 -15
382 10 -15
383 10 -15
384 10 -15
385 10 -25
386 10 -25
387 10 -25
388 10 -25
389 10 -25
390 20 -30
391 20 -30
392 20 -30
393 20 -30
394 20 -30
395 20 -30
396 20 -30
397 30 0
398 30 0
399 30 0
400 30 0
401 30 0
402 30 0
403 30 0
404 30 0
405 30 0
406 30 -15
407 30 -15
408 30 -15
409 30 -15
410 30 -15
411 10 -5
412 10 -5
413 10 -5
414 10 -5
415 0 5
416 0 5
417 0 5
418 0 5
419 0 5
420 6 2
421 6 2
422 6 2
423 6 2
424 6 2
425 6 2
426 29 7
427 29 7
428 29 7
429 29 7
430 5 25
431 5 25
432 5 25
433 5 25
434 5 25
435 5 25
436 5 25
437 5 25
438 -4 17
439 -4 17
440 -4 17
441 -4 17
442 -4 17
443 0 34
444 0 34
445 0 34
446 0 34
447 18 17
448 18 17
449 18 17
450 18 17
451 18 17
452 18 17
453 18 17
454 30 20
455 30 20
456 30 20
457 30 20
458 28 30
459 28 30
460 28 30
461 28 30
462 28 30
463 28 30
464 28 30
465 28 30
466 -33 25
467 -33 25
468 -33 25
469 -33 25
470 -33 25
471 -33 25
472 -15 -15
473 -15 -15
474 -15 -15
475 -15 -15
476 -15 -15
477 -15 -15
478 -15 -15
479 -15 -15
480 -30 -30
481 -30 -30
482 -30 -30
483 -30 -30
484 -30 -30
485 -30 -30
486 -30 -30
487 -30 -30
488 25 -23
489 25 -23
490 25 -23
491 25 -23
492 25 -23
493 25 -23
494 25 -23
495 25 -23
496 5 -10
497 5 -10
498 5 -10
499 5 -10
500 5 -10
501 5 -10
502 7 -28
503 7 -28
504 7 -28
505 7 -28
506 7 -28
507 -11 -23
508 -11 -23
509 -11 -23
510 -11 -23
511 -11 -23
512 -12 -32
513 -12 -32
514 -12 -32
515 -12 -32
516 -12 -32
517 -24 -21
518 -24 -21
519 -24 -21
520 -24 -21
521 -24 -21
522 -29 3
523 -29 3
524 -29 3
525 -29 3
526 -29 3
527 -29 3
528 -29 3
529 -33 13
530 -33 13
531 -33 13
532 -33 13
533 -33 13
534 -33 13
535 -33 13
536 -27 21
537 -27 21
538 -27 21
539 -27 21
540 -27 21
541 -22 17
542 -22 17
543 -22 17
544 -22 17
545 -22 17
546 -22 17
547 -29 33
548 -29 33
549 -29 33
550 -29 33
551 -29 33
552 12 12
553 12 12
554 12 12
555 12 12
556 12 12
557 14 23
558 14 23
559 14 23
560 14 23
561 14 23
562 14 23
563 -8 8
564 -8 8
565 -8 8
566 -8 8
567 -8 8
568 -8 8
569 -8 8
570 2 -4
571 2 -4
572 2 -4
573 2 -4
574 22 -6
575 22 -6
576 22 -6
577 22 -6
578 22 -6
579 22 -6
580 28 -12
581 28 -12
582 28 -12
583 18 -23
584 18 -23
585 18 -23
586 18 -23
587 -3 -23
588 -3 -23
589 -3 -23
590 -3 -23
591 1 -9
592 1 -9
593 1 -9
594 1 -9
595 1 -9
596 1 -9
597 1 -9
598 -14 -11
599 -14 -11
600 -14 -11
601 -18 -1
602 -18 -1
603 -18 -1
604 -18 -1
605 -18 -1
606 -18 -1
607 -18 -1
608 -23 -11
609 -23 -11
610 -23 -11
611 -23 -11
612 -23 -11
613 -23 -11
614 -23 -11
615 -11 23
616 -11 23
617 -11 23
618 -11 23
619 -11 23
620 -11 23
621 -8 34
622 -8 34
623 -20 42
624 -20 42
625 -20 42
626 -20 42
627 -20 42
628 -20 42
629 27 42
630 27 42
631 27 42
632 27 42
633 14 38
634 14 38
635 14 38
636 32 -30
637 32 -30
638 32 -30
639 32 -30
640 32 -30
641 32 -30
642 32 -30
643 21 4
644 21 4
645 21 4
646 21 4
647 21 4
648 21 4
649 2 12
650 2 12
651 2 12
652 2 12
653 2 12
654 2 21
655 2 21
656 2 21
657 2 21
658 2 21
659 2 21
660 2 21
661 2 21
662 22 33
663 22 33
664 22 33
665 22 33
666 22 33
667 12 -19
668 12 -19
669 12 -19
670 12 -19
671 12 -19
672 12 -19
673 12 -19
674 9 -18
675 9 -18
676 9 -18
677 9 -18
678 9 -18
679 11 -22
680 11 -22
681 14 -24
682 14 -24
683 14 -24
684 14 -24
685 14 -24
686 14 7
687 14 7
688 14 7
689 14 7
690 14 7
691 18 8
692 18 8
693 18 8
694 18 8
695 18 8
696 18 8
697 18 8
698 26 17
699 26 17
700 26 17
701 26 17
702 26 17
703 26 17
704 26 17
705 22 13
706 22 13
707 22 13
708 22 13
709 22 13
710 22 13
711 22 13
712 21 2
713 21 2
714 21 2
715 21 2
716 20 19
717 20 19
718 20 19
719 -20 12
720 -20 12
721 -20 12
722 -20 12
723 -20 12
724 -20 12
725 -20 12
726 -21 2
727 -21 2
728 -21 2
729 -21 2
730 -21 2
731 -21 2
732 -24 -4
733 -24 -4
734 -24 -4
735 -24 -4
736 -24 -4
737 -24 -4
738 -24 -4
739 -19 -13
740 -19 -13
741 -19 -13
742 -19 -13
743 -19 -13
744 -19 -13
745 -19 -13
746 -31 -17
747 -31 -17
748 -31 -17
749 -31 -17
750 -31 -17
751 -7 -17
752 -7 -17
753 -7 -17
754 -7 -17
755 -7 -17
756 -7 -17
757 -7 -17
758 -9 17
759 -9 17
760 -9 17
761 -9 0
762 -9 0
763 -9 0
764 -9 0
765 -9 0
766 -9 0
767 -4 32
768 -4 32
769 -4 32
770 -4 32
771 -4 32
772 -20 -16
773 -20 -16
774 -20 -16
775 -20 -16
776 -20 -16
777 -20 -16
778 -20 -16
779 -13 -13
780 -13 -13
781 -13 -13
782 -13 -13
783 -13 -13
784 -13 -13
785 -13 -13
786 -13 -13
787 -17 -11
788 -17 -11
789 -17 -11
790 -17 -11
791 -17 -11
792 -9 -8
793 -9 -8
794 -9 -8
795 -9 -8
796 -9 -8
797 -10 -11
798 -10 -11
799 -10 -11
800 -10 -11
801 -10 -11
802 -13 -8
803 -13 -8
804 -13 -8
805 -13 -8
806 -13 -8
807 -13 -8
808 -13 -8
809 -10 -14
810 -10 -14
811 -10 -14
812 -10 -14
813 -10 -14
814 -10 -14
815 -10 -14
816 -10 -14
817 -10 -14
818 -16 -14
819 -16 -14
820 -16 -14
821 -16 -14
822 -15 -9
823 -15 -9
824 -15 -9
825 -15 -9
826 -15 -9
827 -15 -9
828 -15 -9
829 -17 -17
830 -17 -17
831 -17 -17
832 -17 -17
833 -17 -17
834 -17 -17
DEMAND_SECTION
1 0
2 20
3 20
4 20
5 10
6 5
7 1
8 1
9 1
10 20
11 20
12 1
13 20
14 5
15 1
16 1
17 1
18 20
19 20
20 10
21 1
22 1
23 1
24 1
25 20
26 20
27 20
28 20
29 1
30 1
31 20
32 20
33 20
34 10
35 5
36 1
37 1
38 1
39 20
40 20
41 5
42 1
43 1
44 1
45 1
46 10
47 5
48 1
49 1
50 1
51 20
52 5
53 1
54 10
55 1
56 1
57 20
58 20
59 20
60 10
61 1
62 1
63 1
64 1
65 20
66 20
67 1
68 20
69 20
70 5
71 1
72 1
73 20
74 20
75 10
76 1
77 20
78 20
79 20
80 5
81 1
82 20
83 10
84 1
85 1
86 1
87 10
88 5
89 1
90 20
91 20
92 10
93 20
94 20
95 20
96 10
97 5
98 1
99 1
100 1
101 20
102 20
103 10
104 1
105 1
106 1
107 10
108 5
109 1
110 1
111 1
112 20
113 20
114 20
115 20
116 20
117 20
118 1
119 1
120 20
121 20
122 10
123 5
124 1
125 20
126 20
127 20
128 10
129 1
130 1
131 1
132 20
133 20
134 20
135 5
136 1
137 1
138 1
139 10
140 1
141 1
142 20
143 20
144 20
145 10
146 1
147 1
148 20
149 1
150 1
151 10
152 5
153 1
154 1
155 1
156 20
157 20
158 20
159 10
160 5
161 1
162 1
163 1
164 20
165 20
166 20
167 10
168 1
169 1
170 1
171 1
172 20
173 20
174 20
175 10
176 5
177 1
178 20
179 5
180 1
181 1
182 20
183 20
184 20
185 10
186 5
187 1
188 1
189 20
190 20
191 5
192 1
193 1
194 1
195 20
196 20
197 20
198 10
199 1
200 1
201 20
202 20
203 5
204 1
205 1
206 1
207 20
208 20
209 5
210 1
211 1
212 1
213 20
214 20
215 20
216 10
217 5
218 1
219 20
220 5
221 10
222 5
223 20
224 20
225 20
226 20
227 20
228 20
229 1
230 1
231 1
232 20
233 20
234 20
235 20
236 20
237 10
238 1
239 1
240 20
241 20
242 5
243 1
244 1
245 1
246 1
247 20
248 20
249 1
250 1
251 1
252 1
253 20
254 20
255 20
256 10
257 5
258 1
259 1
260 20
261 20
262 10
263 5
264 1
265 1
266 1
267 1
268 20
269 20
270 20
271 1
272 1
273 1
274 20
275 20
276 20
277 1
278 1
279 10
280 5
281 1
282 20
283 20
284 20
285 20
286 1
287 1
288 1
289 20
290 20
291 20
292 5
293 1
294 1
295 1
296 1
297 20
298 20
299 20
300 5
301 1
302 1
303 1
304 20
305 10
306 1
307 1
308 1
309 1
310 20
311 20
312 20
313 5
314 1
315 20
316 20
317 1
318 1
319 20
320 10
321 5
322 1
323 1
324 20
325 20
326 20
327 20
328 20
329 10
330 1
331 20
332 10
333 5
334 20
335 10
336 1
337 1
338 1
339 20
340 10
341 5
342 1
343 1
344 1
345 20
346 20
347 5
348 1
349 1
350 1
351 20
352 20
353 20
354 10
355 5
356 1
357 1
358 1
359 10
360 5
361 1
362 1
363 20
364 20
365 20
366 20
367 5
368 1
369 1
370 1
371 20
372 20
373 20
374 10
375 5
376 1
377 1
378 1
379 1
380 20
381 20
382 20
383 20
384 5
385 20
386 20
387 20
388 20
389 1
390 20
391 20
392 20
393 10
394 5
395 1
396 1
397 20
398 20
399 20
400 20
401 5
402 1
403 1
404 1
405 1
406 10
407 1
408 1
409 1
410 1
411 20
412 10
413 5
414 1
415 20
416 20
417 10
418 5
419 1
420 20
421 20
422 20
423 5
424 1
425 1
426 20
427 20
428 10
429 5
430 20
431 20
432 20
433 10
434 1
435 1
436 1
437 1
438 20
439 20
440 20
441 1
442 1
443 20
444 10
445 1
446 1
447 20
448 20
449 20
450 1
451 1
452 1
453 1
454 20
455 20
456 20
457 1
458 20
459 20
460 20
461 20
462 5
463 1
464 1
465 1
466 20
467 20
468 20
469 10
470 1
471 1
472 20
473 20
474 20
475 20
476 5
477 1
478 1
479 1
480 20
481 20
482 20
483 10
484 1
485 1
486 1
487 1
488 20
489 20
490 20
491 10
492 5
493 1
494 1
495 1
496 10
497 5
498 1
499 1
500 1
501 1
502 20
503 20
504 20
505 10
506 5
507 20
508 20
509 10
510 5
511 1
512 20
513 1
514 1
515 1
516 1
517 20
518 20
519 20
520 20
521 5
522 20
523 20
524 20
525 1
526 1
527 1
528 1
529 20
530 20
531 20
532 10
533 1
534 1
535 1
536 20
537 20
538 20
539 10
540 1
541 20
542 20
543 1
544 1
545 1
546 1
547 20
548 20
549 20
550 10
551 1
552 10
553 5
554 1
555 1
556 1
557 20
558 20
559 20
560 1
561 1
562 1
563 20
564 20
565 20
566 10
567 1
568 1
569 1
570 20
571 20
572 20
573 10
574 20
575 20
576 20
577 20
578 5
579 1
580 20
581 20
582 5
583 20
584 5
585 1
586 1
587 10
588 5
589 1
590 1
591 20
592 20
593 10
594 1
595 1
596 1
597 1
598 20
599 10
600 5
601 20
602 20
603 20
604 20
605 1
606 1
607 1
608 20
609 20
610 20
611 20
612 1
613 1
614 1
615 20
616 20
617 20
618 1
619 1
620 1
621 10
622 1
623 20
624 10
625 1
626 1
627 1
628 1
629 20
630 20
631 20
632 5
633 20
634 20
635 1
636 20
637 10
638 5
639 1
640 1
641 1
642 1
643 20
644 20
645 20
646 10
647 5
648 1
649 20
650 20
651 20
652 10
653 1
654 20
655 20
656 20
657 20
658 1
659 1
660 1
661 1
662 20
663 10
664 5
665 1
666 1
667 20
668 20
669 5
670 1
671 1
672 1
673 1
674 10
675 1
676 1
677 1
678 1
679 20
680 20
681 20
682 20
683 20
684 1
685 1
686 20
687 20
688 10
689 1
690 1
691 20
692 20
693 20
694 20
695 5
696 1
697 1
698 20
699 20
700 5
701 1
702 1
703 1
704 1
705 20
706 20
707 20
708 1
709 1
710 1
711 1
712 20
713 20
714 5
715 1
716 20
717 20
718 20
719 20
720 20
721 10
722 5
723 1
724 1
725 1
726 20
727 20
728 20
729 10
730 1
731 1
732 20
733 20
734 20
735 5
736 1
737 1
738 1
739 20
740 20
741 20
742 10
743 1
744 1
745 1
746 20
747 20
748 10
749 5
750 1
751 20
752 20
753 10
754 1
755 1
756 1
757 1
758 20
759 10
760 5
761 20
762 10
763 1
764 1
765 1
766 1
767 20
768 20
769 20
770 20
771 5
772 20
773 20
774 10
775 1
776 1
777 1
778 1
779 20
780 20
781 10
782 5
783 1
784 1
785 1
786 1
787 20
788 20
789 10
790 5
791 1
792 20
793 1
794 1
795 1
796 1
797 20
798 20
799 20
800 1
801 1
802 20
803 20
804 20
805 1
806 1
807 1
808 1
809 20
810 20
811 20
812 20
813 5
814 1
815 1
816 1
817 1
818 20
819 5
820 1
821 1
822 20
823 20
824 10
825 1
826 1
827 1
828 1
829 20
830 10
831 5
832 1
833 1
834 1
DEPOT_SECTION
1
-1
EOF