Normalized Data/p04_1090_tsplib0_normalized_split0.sol
833 -5 4 3 1 7 6 2 8 414 -9 10 446 447 448 -15 14 16 13 12 662 661 634 633 632 -21 17 23 827 19 803 801 805 806 804 802 807 -22 20 826 822 824 821 18 825 598 599 597 -27 26 25 24 571 -29 28 55 53 54 283 282 284 285 281 286 287 -36 34 30 33 31 32 37 35 303 306 308 -41 40 42 38 44 39 43 367 366 368 362 363 238 237 -48 47 49 46 45 768 770 767 766 319 321 322 320 -50 52 51 643 645 642 644 -60 62 63 57 61 59 56 58 418 415 -65 64 245 240 244 242 241 760 761 765 764 -66 772 776 485 481 480 479 483 482 486 484 98 97 -68 70 747 749 745 748 746 349 348 345 -71 69 67 344 346 347 219 218 773 744 743 741 -74 75 72 73 311 309 359 360 -77 76 233 231 232 -83 84 81 85 82 691 692 694 695 693 -86 808 815 816 813 810 809 811 814 812 -87 88 221 220 512 514 513 515 511 339 342 338 340 341 343 589 588 587 586 -90 89 603 601 602 -91 292 289 288 291 293 294 290 295 239 243 -95 92 99 93 96 94 775 774 771 777 -112 113 557 556 558 -122 121 119 123 120 535 539 537 542 543 -127 130 129 125 126 733 736 731 734 735 -133 134 131 137 135 132 136 620 621 318 -140 139 138 617 619 615 614 618 616 248 251 246 -142 146 144 141 443 444 445 442 416 417 -145 143 370 371 377 375 378 376 374 373 372 -153 151 152 154 150 580 579 581 408 406 409 405 407 179 177 -160 162 161 159 155 156 157 158 769 -166 657 653 656 654 655 659 660 658 -168 167 163 165 169 170 164 652 648 651 -180 178 403 396 402 401 398 399 397 404 400 262 -191 189 631 629 630 628 664 663 665 561 560 559 -196 199 194 198 197 195 330 -202 205 204 203 200 201 327 329 328 419 423 -211 208 206 209 207 210 635 637 640 639 638 641 636 492 491 496 500 -215 217 214 213 216 212 519 -228 230 229 227 225 226 752 755 750 756 754 -234 502 505 501 503 504 -235 236 562 563 565 564 -247 323 324 326 325 -250 249 622 626 623 624 627 625 548 546 550 364 369 -254 256 253 252 410 412 411 -259 261 263 264 260 265 711 266 714 712 713 -269 268 267 650 649 -271 270 272 111 434 432 431 430 429 436 433 435 -275 277 273 276 274 80 78 79 592 596 593 -278 279 280 148 149 147 706 704 705 709 -302 297 301 296 300 298 299 791 795 793 794 792 -305 304 307 118 116 115 114 117 365 567 568 566 -310 312 313 533 530 531 534 528 532 529 -315 314 102 101 100 105 104 103 554 552 553 -317 316 188 190 193 192 457 462 461 459 464 458 -332 331 509 507 506 508 510 751 753 -333 336 337 335 334 518 517 516 520 -357 355 353 352 350 351 354 356 737 732 -358 361 128 124 522 521 527 526 524 525 523 763 762 -380 381 379 382 383 498 497 495 -384 385 387 682 680 -386 388 174 173 176 171 175 172 674 499 -413 258 255 257 573 577 574 575 576 578 -420 421 424 422 689 688 685 687 686 -441 440 439 437 438 759 757 758 -460 463 186 187 184 185 182 183 181 11 555 -469 470 468 466 467 465 536 -474 473 477 828 833 829 832 831 830 787 790 -489 490 493 494 488 487 582 583 584 585 669 -538 223 224 222 547 549 -544 540 545 541 724 721 723 722 718 719 720 -551 450 449 451 452 717 716 715 701 697 702 700 -570 572 569 595 591 590 594 -604 606 600 605 729 726 730 728 725 727 -609 611 613 612 608 610 607 823 -647 646 428 426 427 425 109 107 110 106 108 690 696 -668 671 667 670 666 678 679 677 675 673 676 -672 395 392 393 394 390 391 389 681 683 684 -698 703 699 453 456 455 454 708 707 710 -739 738 740 742 788 789 786 -783 778 779 782 780 784 781 785 797 796 -800 799 798 472 471 478 476 475 818 819 817 820 0 





OBJ=
4629.494
BEST_KNOWN=
0.000